Set parameter TokenServer to value "hpc-licenses.hpcc.usc.edu"
Set parameter TimeLimit to value 3600
Gurobi Optimizer version 9.5.1 build v9.5.1rc2 (linux64)
Thread count: 20 physical cores, 20 logical processors, using up to 20 threads
Optimize a model with 6007 rows, 4529 columns and 24534 nonzeros
Model fingerprint: 0x4be10532
Variable types: 4506 continuous, 23 integer (23 binary)
Coefficient statistics:
  Matrix range     [1e+00, 1e+00]
  Objective range  [2e-04, 1e+00]
  Bounds range     [1e+00, 1e+00]
  RHS range        [1e+00, 1e+02]
Found heuristic solution: objective 255.9175540
Presolve removed 1520 rows and 1515 columns
Presolve time: 0.05s
Presolved: 4487 rows, 3014 columns, 21975 nonzeros
Variable types: 2994 continuous, 20 integer (20 binary)

Root relaxation: objective 2.724010e+02, 2924 iterations, 0.10 seconds (0.15 work units)

    Nodes    |    Current Node    |     Objective Bounds      |     Work
 Expl Unexpl |  Obj  Depth IntInf | Incumbent    BestBd   Gap | It/Node Time

     0     0  272.40105    0    2  255.91755  272.40105  6.44%     -    0s
H    0     0                     260.9944484  272.40105  4.37%     -    0s
     0     0  272.29884    0    2  260.99445  272.29884  4.33%     -    0s
H    0     0                     263.9679590  271.75792  2.95%     -    0s
     0     0  271.75792    0    3  263.96796  271.75792  2.95%     -    0s
     0     0  271.73365    0    3  263.96796  271.73365  2.94%     -    0s
     0     0  271.66867    0    3  263.96796  271.66867  2.92%     -    0s
     0     0  271.62634    0    3  263.96796  271.62634  2.90%     -    0s
     0     0  271.58217    0    3  263.96796  271.58217  2.88%     -    0s
     0     0  271.54154    0    3  263.96796  271.54154  2.87%     -    0s
     0     0  271.48394    0    3  263.96796  271.48394  2.85%     -    0s
     0     0  271.30584    0    3  263.96796  271.30584  2.78%     -    0s
     0     0  271.29984    0    3  263.96796  271.29984  2.78%     -    0s
H    0     0                     271.0611185  271.29984  0.09%     -    0s

Cutting planes:
  Gomory: 2
  MIR: 196
  Flow cover: 2
  RLT: 6
  Relax-and-lift: 20

Explored 1 nodes (4076 simplex iterations) in 0.63 seconds (0.60 work units)
Thread count was 20 (of 20 available processors)

Solution count 4: 271.061 263.968 260.994 255.918 

Optimal solution found (tolerance 1.00e-04)
Best objective 2.710611185090e+02, best bound 2.710611185090e+02, gap 0.0000%



#########node  1
V1.7
#########node  2
0.047619047619047616,0.9523809523809523
#########node  3
1.0,0.0


Total Solving Time 1.0165653228759766
obj value 271.0611185090336
Policy Regret train (Sum) 9.912030792665206
Best Treatment Found train (%) 57.599999999999994
treatment classification acc train (%) 35.6
Policy Regret test (Sum) 38.72832714295484
Best Treatment Found test (%) 81.04
treatment classification acc test (%) 35.17
